NAME: random-81-1914
TYPE: TSP
COMMENT: size=81 seed=1914
DIMENSION: 164
EDGE_WEIGHT_TYPE: EUC_2D
NODE_COORD_SECTION
+0 598 189
-0 598 189
+1 727 515
-1 986 39
+2 522 543
-2 262 692
+3 958 686
-3 124 331
+4 130 248
-4 509 199
+5 989 308
-5 857 838
+6 347 586
-6 614 695
+7 812 916
-7 584 638
+8 174 808
-8 364 246
+9 936 977
-9 494 141
+10 454 848
-10 401 777
+11 481 997
-11 816 803
+12 229 53
-12 765 484
+13 727 494
-13 63 114
+14 979 598
-14 640 937
+15 951 369
-15 550 266
+16 578 227
-16 655 981
+17 734 535
-17 546 89
+18 480 279
-18 199 460
+19 335 439
-19 771 788
+20 262 283
-20 496 815
+21 871 242
-21 347 220
+22 150 472
-22 270 280
+23 433 794
-23 571 831
+24 588 348
-24 127 251
+25 798 793
-25 891 165
+26 0 394
-26 633 97
+27 482 18
-27 910 630
+28 463 462
-28 225 55
+29 453 357
-29 303 465
+30 62 423
-30 681 888
+31 33 126
-31 917 447
+32 622 539
-32 29 154
+33 259 40
-33 552 320
+34 698 314
-34 713 668
+35 797 818
-35 124 997
+36 370 106
-36 623 199
+37 336 539
-37 872 739
+38 903 412
-38 639 834
+39 572 478
-39 887 725
+40 744 67
-40 67 97
+41 594 841
-41 128 79
+42 513 181
-42 167 451
+43 910 962
-43 424 7
+44 552 400
-44 216 21
+45 694 683
-45 52 45
+46 949 973
-46 244 757
+47 156 271
-47 669 456
+48 387 402
-48 688 128
+49 848 537
-49 126 962
+50 270 62
-50 469 522
+51 525 119
-51 658 514
+52 7 434
-52 801 939
+53 276 728
-53 107 111
+54 308 834
-54 461 958
+55 525 764
-55 188 36
+56 883 301
-56 617 199
+57 677 276
-57 929 999
+58 389 274
-58 3 375
+59 434 819
-59 614 571
+60 31 743
-60 52 163
+61 576 440
-61 800 141
+62 304 721
-62 769 485
+63 952 634
-63 344 33
+64 560 740
-64 710 596
+65 634 208
-65 766 588
+66 192 187
-66 733 664
+67 333 762
-67 904 839
+68 138 779
-68 868 337
+69 830 956
-69 924 720
+70 27 981
-70 907 451
+71 507 738
-71 805 396
+72 442 200
-72 531 159
+73 612 138
-73 349 280
+74 429 850
-74 966 777
+75 638 409
-75 13 360
+76 724 648
-76 382 820
+77 291 844
-77 697 680
+78 278 589
-78 82 909
+79 667 931
-79 76 234
+80 834 563
-80 704 386
+81 507 351
-81 244 183
PRECEDENCE_SECTION
+0 -0
+1 -1
+2 -2
+3 -3
+4 -4
+5 -5
+6 -6
+7 -7
+8 -8
+9 -9
+10 -10
+11 -11
+12 -12
+13 -13
+14 -14
+15 -15
+16 -16
+17 -17
+18 -18
+19 -19
+20 -20
+21 -21
+22 -22
+23 -23
+24 -24
+25 -25
+26 -26
+27 -27
+28 -28
+29 -29
+30 -30
+31 -31
+32 -32
+33 -33
+34 -34
+35 -35
+36 -36
+37 -37
+38 -38
+39 -39
+40 -40
+41 -41
+42 -42
+43 -43
+44 -44
+45 -45
+46 -46
+47 -47
+48 -48
+49 -49
+50 -50
+51 -51
+52 -52
+53 -53
+54 -54
+55 -55
+56 -56
+57 -57
+58 -58
+59 -59
+60 -60
+61 -61
+62 -62
+63 -63
+64 -64
+65 -65
+66 -66
+67 -67
+68 -68
+69 -69
+70 -70
+71 -71
+72 -72
+73 -73
+74 -74
+75 -75
+76 -76
+77 -77
+78 -78
+79 -79
+80 -80
+81 -81
EOF
